peakDumbCharging = 7400; 
Machine = anon_enum(16); 
machineSpeed = [3700,3700,3700,3700,3700,3700,3700,3700,3700,3700,3700,3700,3700,3700,3700,3700]; 
machineLoad = [3700,3700,3700,3700,3700,3700,3700,3700,3700,3700,3700,3700,3700,3700,3700,3700]; 
Car = anon_enum(8); 
demandCar = [2560,4840,6680,8800,5720,9360,4200,3000]; 
arrivalCar = [78,77,74,72,66,60,50,43]; 
departureCar = [81,80,79,76,69,64,53,47]; 
